\ Model MTZ_MODEL
\ LP format - for model browsing. Use MPS format to capture full model detail.
Minimize
  p[0,1] + p[0,2] + p[0,3] + p[0,4] + p[1,0] + p[1,2] + p[1,3] + p[1,4]
   + p[2,0] + p[2,1] + p[2,3] + p[2,4] + p[3,0] + p[3,1] + p[3,2] + p[3,4]
   + p[4,0] + p[4,1] + p[4,2] + p[4,3] + dc[0] + dc[1] + dc[2] + dc[3]
   + dc[4]
Subject To
 p2: p[0,1] - 18.65093665739134 z[0,1] >= 0
 p3: p[0,1] - 50.7454278949559 z[0,1] - dcc[0,1] >= -50.7454278949559
 R2: dcc[0,1] <= 50.7454278949559
 R3: x[0,1,0] - x[1,0,0] + dif[0,1,0] >= 0
 R4: - x[0,1,0] + x[1,0,0] + dif[0,1,0] >= 0
 R5: x[0,1,1] - x[1,0,1] + dif[0,1,1] >= 0
 R6: - x[0,1,1] + x[1,0,1] + dif[0,1,1] >= 0
 p2: p[0,2] - 37.61901345376595 z[0,2] >= 0
 p3: p[0,2] - 67.42824615383628 z[0,2] - dcc[0,2] >= -67.42824615383628
 R9: dcc[0,2] <= 67.42824615383628
 R10: x[0,1,0] - x[2,0,0] + dif[0,2,0] >= 0
 R11: - x[0,1,0] + x[2,0,0] + dif[0,2,0] >= 0
 R12: x[0,1,1] - x[2,0,1] + dif[0,2,1] >= 0
 R13: - x[0,1,1] + x[2,0,1] + dif[0,2,1] >= 0
 p2: p[0,3] - 12.17062311400557 z[0,3] >= 0
 p3: p[0,3] - 43.89664854651577 z[0,3] - dcc[0,3] >= -43.89664854651577
 R16: dcc[0,3] <= 43.89664854651577
 R17: x[0,1,0] - x[3,0,0] + dif[0,3,0] >= 0
 R18: - x[0,1,0] + x[3,0,0] + dif[0,3,0] >= 0
 R19: x[0,1,1] - x[3,0,1] + dif[0,3,1] >= 0
 R20: - x[0,1,1] + x[3,0,1] + dif[0,3,1] >= 0
 p2: p[0,4] - 26.58626286611355 z[0,4] >= 0
 p3: p[0,4] - 55.76675308627315 z[0,4] - dcc[0,4] >= -55.76675308627315
 R23: dcc[0,4] <= 55.76675308627315
 R24: x[0,1,0] - x[4,0,0] + dif[0,4,0] >= 0
 R25: - x[0,1,0] + x[4,0,0] + dif[0,4,0] >= 0
 R26: x[0,1,1] - x[4,0,1] + dif[0,4,1] >= 0
 R27: - x[0,1,1] + x[4,0,1] + dif[0,4,1] >= 0
 p2: p[1,0] - 18.65093665739135 z[1,0] >= 0
 p3: p[1,0] - 50.74542789495589 z[1,0] - dcc[1,0] >= -50.74542789495589
 R30: dcc[1,0] <= 50.74542789495589
 R31: - x[0,0,0] + x[1,1,0] + dif[1,0,0] >= 0
 R32: x[0,0,0] - x[1,1,0] + dif[1,0,0] >= 0
 R33: - x[0,0,1] + x[1,1,1] + dif[1,0,1] >= 0
 R34: x[0,0,1] - x[1,1,1] + dif[1,0,1] >= 0
 p2: p[1,2] - 66.47701734673988 z[1,2] >= 0
 p3: p[1,2] - 97.44446282194328 z[1,2] - dcc[1,2] >= -97.44446282194328
 R37: dcc[1,2] <= 97.44446282194328
 R38: x[1,1,0] - x[2,0,0] + dif[1,2,0] >= 0
 R39: - x[1,1,0] + x[2,0,0] + dif[1,2,0] >= 0
 R40: x[1,1,1] - x[2,0,1] + dif[1,2,1] >= 0
 R41: - x[1,1,1] + x[2,0,1] + dif[1,2,1] >= 0
 p2: p[1,3] + 7.102943084305407 z[1,3] >= 0
 p3: p[1,3] - 25.78129512333786 z[1,3] - dcc[1,3] >= -25.78129512333786
 R44: dcc[1,3] <= 25.78129512333786
 R45: x[1,1,0] - x[3,0,0] + dif[1,3,0] >= 0
 R46: - x[1,1,0] + x[3,0,0] + dif[1,3,0] >= 0
 R47: x[1,1,1] - x[3,0,1] + dif[1,3,1] >= 0
 R48: - x[1,1,1] + x[3,0,1] + dif[1,3,1] >= 0
 p2: p[1,4] - 59.70556785960753 z[1,4] >= 0
 p3: p[1,4] - 90.04427085490019 z[1,4] - dcc[1,4] >= -90.04427085490019
 R51: dcc[1,4] <= 90.04427085490019
 R52: x[1,1,0] - x[4,0,0] + dif[1,4,0] >= 0
 R53: - x[1,1,0] + x[4,0,0] + dif[1,4,0] >= 0
 R54: x[1,1,1] - x[4,0,1] + dif[1,4,1] >= 0
 R55: - x[1,1,1] + x[4,0,1] + dif[1,4,1] >= 0
 p2: p[2,0] - 37.61901345376595 z[2,0] >= 0
 p3: p[2,0] - 67.42824615383627 z[2,0] - dcc[2,0] >= -67.42824615383627
 R58: dcc[2,0] <= 67.42824615383627
 R59: - x[0,0,0] + x[2,1,0] + dif[2,0,0] >= 0
 R60: x[0,0,0] - x[2,1,0] + dif[2,0,0] >= 0
 R61: - x[0,0,1] + x[2,1,1] + dif[2,0,1] >= 0
 R62: x[0,0,1] - x[2,1,1] + dif[2,0,1] >= 0
 p2: p[2,1] - 66.47701734673988 z[2,1] >= 0
 p3: p[2,1] - 97.44446282194328 z[2,1] - dcc[2,1] >= -97.44446282194328
 R65: dcc[2,1] <= 97.44446282194328
 R66: - x[1,0,0] + x[2,1,0] + dif[2,1,0] >= 0
 R67: x[1,0,0] - x[2,1,0] + dif[2,1,0] >= 0
 R68: - x[1,0,1] + x[2,1,1] + dif[2,1,1] >= 0
 R69: x[1,0,1] - x[2,1,1] + dif[2,1,1] >= 0
 p2: p[2,3] - 57.6327321710796 z[2,3] >= 0
 p3: p[2,3] - 88.23171184122864 z[2,3] - dcc[2,3] >= -88.23171184122864
 R72: dcc[2,3] <= 88.23171184122864
 R73: x[2,1,0] - x[3,0,0] + dif[2,3,0] >= 0
 R74: - x[2,1,0] + x[3,0,0] + dif[2,3,0] >= 0
 R75: x[2,1,1] - x[3,0,1] + dif[2,3,1] >= 0
 R76: - x[2,1,1] + x[3,0,1] + dif[2,3,1] >= 0
 p2: p[2,4] - 7.180835026011217 z[2,4] >= 0
 p3: p[2,4] - 35.23427948380966 z[2,4] - dcc[2,4] >= -35.23427948380966
 R79: dcc[2,4] <= 35.23427948380966
 R80: x[2,1,0] - x[4,0,0] + dif[2,4,0] >= 0
 R81: - x[2,1,0] + x[4,0,0] + dif[2,4,0] >= 0
 R82: x[2,1,1] - x[4,0,1] + dif[2,4,1] >= 0
 R83: - x[2,1,1] + x[4,0,1] + dif[2,4,1] >= 0
 p2: p[3,0] - 12.17062311400557 z[3,0] >= 0
 p3: p[3,0] - 43.89664854651577 z[3,0] - dcc[3,0] >= -43.89664854651577
 R86: dcc[3,0] <= 43.89664854651577
 R87: - x[0,0,0] + x[3,1,0] + dif[3,0,0] >= 0
 R88: x[0,0,0] - x[3,1,0] + dif[3,0,0] >= 0
 R89: - x[0,0,1] + x[3,1,1] + dif[3,0,1] >= 0
 R90: x[0,0,1] - x[3,1,1] + dif[3,0,1] >= 0
 p2: p[3,1] + 7.102943084305407 z[3,1] >= 0
 p3: p[3,1] - 25.78129512333786 z[3,1] - dcc[3,1] >= -25.78129512333786
 R93: dcc[3,1] <= 25.78129512333786
 R94: - x[1,0,0] + x[3,1,0] + dif[3,1,0] >= 0
 R95: x[1,0,0] - x[3,1,0] + dif[3,1,0] >= 0
 R96: - x[1,0,1] + x[3,1,1] + dif[3,1,1] >= 0
 R97: x[1,0,1] - x[3,1,1] + dif[3,1,1] >= 0
 p2: p[3,2] - 57.6327321710796 z[3,2] >= 0
 p3: p[3,2] - 88.23171184122864 z[3,2] - dcc[3,2] >= -88.23171184122864
 R100: dcc[3,2] <= 88.23171184122864
 R101: - x[2,0,0] + x[3,1,0] + dif[3,2,0] >= 0
 R102: x[2,0,0] - x[3,1,0] + dif[3,2,0] >= 0
 R103: - x[2,0,1] + x[3,1,1] + dif[3,2,1] >= 0
 R104: x[2,0,1] - x[3,1,1] + dif[3,2,1] >= 0
 p2: p[3,4] - 51.8416111148787 z[3,4] >= 0
 p3: p[3,4] - 81.81184830511702 z[3,4] - dcc[3,4] >= -81.81184830511702
 R107: dcc[3,4] <= 81.81184830511702
 R108: x[3,1,0] - x[4,0,0] + dif[3,4,0] >= 0
 R109: - x[3,1,0] + x[4,0,0] + dif[3,4,0] >= 0
 R110: x[3,1,1] - x[4,0,1] + dif[3,4,1] >= 0
 R111: - x[3,1,1] + x[4,0,1] + dif[3,4,1] >= 0
 p2: p[4,0] - 26.58626286611355 z[4,0] >= 0
 p3: p[4,0] - 55.76675308627315 z[4,0] - dcc[4,0] >= -55.76675308627315
 R114: dcc[4,0] <= 55.76675308627315
 R115: - x[0,0,0] + x[4,1,0] + dif[4,0,0] >= 0
 R116: x[0,0,0] - x[4,1,0] + dif[4,0,0] >= 0
 R117: - x[0,0,1] + x[4,1,1] + dif[4,0,1] >= 0
 R118: x[0,0,1] - x[4,1,1] + dif[4,0,1] >= 0
 p2: p[4,1] - 59.70556785960753 z[4,1] >= 0
 p3: p[4,1] - 90.04427085490019 z[4,1] - dcc[4,1] >= -90.04427085490019
 R121: dcc[4,1] <= 90.04427085490019
 R122: - x[1,0,0] + x[4,1,0] + dif[4,1,0] >= 0
 R123: x[1,0,0] - x[4,1,0] + dif[4,1,0] >= 0
 R124: - x[1,0,1] + x[4,1,1] + dif[4,1,1] >= 0
 R125: x[1,0,1] - x[4,1,1] + dif[4,1,1] >= 0
 p2: p[4,2] - 7.180835026011216 z[4,2] >= 0
 p3: p[4,2] - 35.23427948380966 z[4,2] - dcc[4,2] >= -35.23427948380966
 R128: dcc[4,2] <= 35.23427948380966
 R129: - x[2,0,0] + x[4,1,0] + dif[4,2,0] >= 0
 R130: x[2,0,0] - x[4,1,0] + dif[4,2,0] >= 0
 R131: - x[2,0,1] + x[4,1,1] + dif[4,2,1] >= 0
 R132: x[2,0,1] - x[4,1,1] + dif[4,2,1] >= 0
 p2: p[4,3] - 51.8416111148787 z[4,3] >= 0
 p3: p[4,3] - 81.81184830511702 z[4,3] - dcc[4,3] >= -81.81184830511702
 R135: dcc[4,3] <= 81.81184830511702
 R136: - x[3,0,0] + x[4,1,0] + dif[4,3,0] >= 0
 R137: x[3,0,0] - x[4,1,0] + dif[4,3,0] >= 0
 R138: - x[3,0,1] + x[4,1,1] + dif[4,3,1] >= 0
 R139: x[3,0,1] - x[4,1,1] + dif[4,3,1] >= 0
 R140: z[0,1] + z[0,2] + z[0,3] + z[0,4] = 1
 R141: z[1,0] + z[1,2] + z[1,3] + z[1,4] = 1
 R142: z[2,0] + z[2,1] + z[2,3] + z[2,4] = 1
 R143: z[3,0] + z[3,1] + z[3,2] + z[3,4] = 1
 R144: z[4,0] + z[4,1] + z[4,2] + z[4,3] = 1
 R145: z[1,0] + z[2,0] + z[3,0] + z[4,0] = 1
 R146: z[0,1] + z[2,1] + z[3,1] + z[4,1] = 1
 R147: z[0,2] + z[1,2] + z[3,2] + z[4,2] = 1
 R148: z[0,3] + z[1,3] + z[2,3] + z[4,3] = 1
 R149: z[0,4] + z[1,4] + z[2,4] + z[3,4] = 1
 rest7: z[0,1] + z[1,0] <= 1
 rest7: z[0,2] + z[2,0] <= 1
 rest7: z[0,3] + z[3,0] <= 1
 rest7: z[0,4] + z[4,0] <= 1
 rest7: z[0,1] + z[1,0] <= 1
 rest7: z[1,2] + z[2,1] <= 1
 rest7: z[1,3] + z[3,1] <= 1
 rest7: z[1,4] + z[4,1] <= 1
 rest7: z[0,2] + z[2,0] <= 1
 rest7: z[1,2] + z[2,1] <= 1
 rest7: z[2,3] + z[3,2] <= 1
 rest7: z[2,4] + z[4,2] <= 1
 rest7: z[0,3] + z[3,0] <= 1
 rest7: z[1,3] + z[3,1] <= 1
 rest7: z[2,3] + z[3,2] <= 1
 rest7: z[3,4] + z[4,3] <= 1
 rest7: z[0,4] + z[4,0] <= 1
 rest7: z[1,4] + z[4,1] <= 1
 rest7: z[2,4] + z[4,2] <= 1
 rest7: z[3,4] + z[4,3] <= 1
 R170: 5 z[1,2] + sc[1] - sc[2] <= 4
 R171: 5 z[1,3] + sc[1] - sc[3] <= 4
 R172: 5 z[1,4] + sc[1] - sc[4] <= 4
 R173: 5 z[2,1] - sc[1] + sc[2] <= 4
 R174: 5 z[2,3] + sc[2] - sc[3] <= 4
 R175: 5 z[2,4] + sc[2] - sc[4] <= 4
 R176: 5 z[3,1] - sc[1] + sc[3] <= 4
 R177: 5 z[3,2] - sc[2] + sc[3] <= 4
 R178: 5 z[3,4] + sc[3] - sc[4] <= 4
 R179: 5 z[4,1] - sc[1] + sc[4] <= 4
 R180: 5 z[4,2] - sc[2] + sc[4] <= 4
 R181: 5 z[4,3] - sc[3] + sc[4] <= 4
 rest10: sc[0] = 0
 rest11: sc[1] >= 1
 rest11: sc[2] >= 1
 rest11: sc[3] >= 1
 rest11: sc[4] >= 1
 R187: dc[0] <= 15.46813923121574
 R188: - x[0,0,0] + x[0,1,0] + difc[0,0] >= 0
 R189: x[0,0,0] - x[0,1,0] + difc[0,0] >= 0
 R190: - x[0,0,1] + x[0,1,1] + difc[0,1] >= 0
 R191: x[0,0,1] - x[0,1,1] + difc[0,1] >= 0
 R192: dc[1] <= 16.6263520063488
 R193: - x[1,0,0] + x[1,1,0] + difc[1,0] >= 0
 R194: x[1,0,0] - x[1,1,0] + difc[1,0] >= 0
 R195: - x[1,0,1] + x[1,1,1] + difc[1,1] >= 0
 R196: x[1,0,1] - x[1,1,1] + difc[1,1] >= 0
 R197: dc[2] <= 14.34109346885458
 R198: - x[2,0,0] + x[2,1,0] + difc[2,0] >= 0
 R199: x[2,0,0] - x[2,1,0] + difc[2,0] >= 0
 R200: - x[2,0,1] + x[2,1,1] + difc[2,1] >= 0
 R201: x[2,0,1] - x[2,1,1] + difc[2,1] >= 0
 R202: dc[3] <= 16.25788620129446
 R203: - x[3,0,0] + x[3,1,0] + difc[3,0] >= 0
 R204: x[3,0,0] - x[3,1,0] + difc[3,0] >= 0
 R205: - x[3,0,1] + x[3,1,1] + difc[3,1] >= 0
 R206: x[3,0,1] - x[3,1,1] + difc[3,1] >= 0
 R207: dc[4] <= 13.71235098894386
 R208: - x[4,0,0] + x[4,1,0] + difc[4,0] >= 0
 R209: x[4,0,0] - x[4,1,0] + difc[4,0] >= 0
 R210: - x[4,0,1] + x[4,1,1] + difc[4,1] >= 0
 R211: x[4,0,1] - x[4,1,1] + difc[4,1] >= 0
 qc0: [ - dcc[0,1] ^2 + dif[0,1,0] ^2 + dif[0,1,1] ^2 ] <= 0
 qc1: [ - dcc[0,2] ^2 + dif[0,2,0] ^2 + dif[0,2,1] ^2 ] <= 0
 qc2: [ - dcc[0,3] ^2 + dif[0,3,0] ^2 + dif[0,3,1] ^2 ] <= 0
 qc3: [ - dcc[0,4] ^2 + dif[0,4,0] ^2 + dif[0,4,1] ^2 ] <= 0
 qc4: [ - dcc[1,0] ^2 + dif[1,0,0] ^2 + dif[1,0,1] ^2 ] <= 0
 qc5: [ - dcc[1,2] ^2 + dif[1,2,0] ^2 + dif[1,2,1] ^2 ] <= 0
 qc6: [ - dcc[1,3] ^2 + dif[1,3,0] ^2 + dif[1,3,1] ^2 ] <= 0
 qc7: [ - dcc[1,4] ^2 + dif[1,4,0] ^2 + dif[1,4,1] ^2 ] <= 0
 qc8: [ - dcc[2,0] ^2 + dif[2,0,0] ^2 + dif[2,0,1] ^2 ] <= 0
 qc9: [ - dcc[2,1] ^2 + dif[2,1,0] ^2 + dif[2,1,1] ^2 ] <= 0
 qc10: [ - dcc[2,3] ^2 + dif[2,3,0] ^2 + dif[2,3,1] ^2 ] <= 0
 qc11: [ - dcc[2,4] ^2 + dif[2,4,0] ^2 + dif[2,4,1] ^2 ] <= 0
 qc12: [ - dcc[3,0] ^2 + dif[3,0,0] ^2 + dif[3,0,1] ^2 ] <= 0
 qc13: [ - dcc[3,1] ^2 + dif[3,1,0] ^2 + dif[3,1,1] ^2 ] <= 0
 qc14: [ - dcc[3,2] ^2 + dif[3,2,0] ^2 + dif[3,2,1] ^2 ] <= 0
 qc15: [ - dcc[3,4] ^2 + dif[3,4,0] ^2 + dif[3,4,1] ^2 ] <= 0
 qc16: [ - dcc[4,0] ^2 + dif[4,0,0] ^2 + dif[4,0,1] ^2 ] <= 0
 qc17: [ - dcc[4,1] ^2 + dif[4,1,0] ^2 + dif[4,1,1] ^2 ] <= 0
 qc18: [ - dcc[4,2] ^2 + dif[4,2,0] ^2 + dif[4,2,1] ^2 ] <= 0
 qc19: [ - dcc[4,3] ^2 + dif[4,3,0] ^2 + dif[4,3,1] ^2 ] <= 0
 inC1: - 95.9405671742439 x[0,0,0] - 72.56427514405472 x[0,0,1] + [
   x[0,0,0] ^2 + x[0,0,1] ^2 ] <= -3557.725781405352
 inC1: - 95.9405671742439 x[0,1,0] - 72.56427514405472 x[0,1,1] + [
   x[0,1,0] ^2 + x[0,1,1] ^2 ] <= -3557.725781405352
 qc22: [ - dc[0] ^2 + difc[0,0] ^2 + difc[0,1] ^2 ] <= 0
 inC1: - 26.82357755871992 x[1,0,0] - 78.78497924968676 x[1,0,1] + [
   x[1,0,0] ^2 + x[1,0,1] ^2 ] <= -1662.535421845804
 inC1: - 26.82357755871992 x[1,1,0] - 78.78497924968676 x[1,1,1] + [
   x[1,1,0] ^2 + x[1,1,1] ^2 ] <= -1662.535421845804
 qc25: [ - dc[1] ^2 + difc[1,0] ^2 + difc[1,1] ^2 ] <= 0
 inC1: - 181.1819645890725 x[2,0,0] - 133.9550799753504 x[2,0,1] + [
   x[2,0,0] ^2 + x[2,0,1] ^2 ] <= -12641.300195419
 inC1: - 181.1819645890725 x[2,1,0] - 133.9550799753504 x[2,1,1] + [
   x[2,1,0] ^2 + x[2,1,1] ^2 ] <= -12641.300195419
 qc28: [ - dc[2] ^2 + difc[2,0] ^2 + difc[2,1] ^2 ] <= 0
 inC1: - 42.37613241888229 x[3,0,0] - 89.12900516881842 x[3,0,1] + [
   x[3,0,0] ^2 + x[3,0,1] ^2 ] <= -2368.849324357917
 inC1: - 42.37613241888229 x[3,1,0] - 89.12900516881842 x[3,1,1] + [
   x[3,1,0] ^2 + x[3,1,1] ^2 ] <= -2368.849324357917
 qc31: [ - dc[3] ^2 + difc[3,0] ^2 + difc[3,1] ^2 ] <= 0
 inC1: - 176.0017384713179 x[4,0,0] - 91.85748863985769 x[4,0,1] + [
   x[4,0,0] ^2 + x[4,0,1] ^2 ] <= -9806.595398625943
 inC1: - 176.0017384713179 x[4,1,0] - 91.85748863985769 x[4,1,1] + [
   x[4,1,0] ^2 + x[4,1,1] ^2 ] <= -9806.595398625943
 qc34: [ - dc[4] ^2 + difc[4,0] ^2 + difc[4,1] ^2 ] <= 0
Bounds
 sc[0] <= 4
 sc[1] <= 4
 sc[2] <= 4
 sc[3] <= 4
 sc[4] <= 4
Binaries
 z[0,1] z[0,2] z[0,3] z[0,4] z[1,0] z[1,2] z[1,3] z[1,4] z[2,0] z[2,1]
 z[2,3] z[2,4] z[3,0] z[3,1] z[3,2] z[3,4] z[4,0] z[4,1] z[4,2] z[4,3]
End
